outputs/models/Extended_LCD_ILP_2_5_2_2.mps
* Signature: 0xc4fdac2c34ca9cd
NAME Extended ILP
OBJSENSE MAX
ROWS
 N  OBJ
 G  R0      
 G  R1      
 G  R2      
 G  R3      
 G  R4      
 G  R5      
 G  R6      
 G  R7      
 G  R8      
 G  R9      
 G  R10     
 L  R11     
COLUMNS
    MARKER    'MARKER'                 'INTORG'
    A[0]      OBJ       1
    A[0]      R0        1
    A[0]      R1        -2
    A[0]      R2        -2
    A[0]      R3        1
    A[0]      R4        1
    A[0]      R5        8
    A[0]      R6        12
    A[0]      R7        4
    A[0]      R9        1
    A[0]      R10       1
    A[0]      R11       1
    A[1]      OBJ       1
    A[1]      R0        -1
    A[1]      R1        -2
    A[1]      R2        2
    A[1]      R3        1
    A[1]      R4        -1
    A[1]      R5        12
    A[1]      R6        4
    A[1]      R7        4
    A[1]      R8        2
    A[1]      R10       1
    A[1]      R11       1
    A[2]      OBJ       1
    A[2]      R0        -3
    A[2]      R1        2
    A[2]      R2        2
    A[2]      R3        -3
    A[2]      R4        1
    A[2]      R5        8
    A[2]      R6        8
    A[2]      R7        4
    A[2]      R10       1
    A[2]      R11       1
    A[3]      OBJ       1
    A[3]      R0        -5
    A[3]      R1        10
    A[3]      R2        -10
    A[3]      R3        5
    A[3]      R4        -1
    A[3]      R6        20
    A[3]      R8        -2
    A[3]      R10       1
    A[3]      R11       1
    MARKER    'MARKER'                 'INTEND'
RHS
    RHS1      R0        -5
    RHS1      R1        -10
    RHS1      R2        -10
    RHS1      R3        -5
    RHS1      R4        -1
    RHS1      R9        1
    RHS1      R10       4
    RHS1      R11       16
BOUNDS
 UP BND1      A[0]      10
 UP BND1      A[1]      10
 UP BND1      A[2]      5
 UP BND1      A[3]      1
ENDATA
